158
1000000
481516
114277
841322
445911
415107
835021
866422
122746
334927
473013
46531
344499
745882
226605
522357
189592
749069
239836
726859
327673
640306
529611
420397
665073
825140
813463
293890
470447
564351
976563
88861
186537
19780
478735
76982
661446
222682
282343
470389
462800
635885
267122
81188
278174
521265
45229
29997
494135
87667
63219
273141
605644
309654
338554
7071
123722
792965
11906
702046
461669
159994
378973
533559
127876
153947
142933
269288
152928
4269
185701
834157
847072
192497
885723
127516
359694
110233
446392
151507
373040
553608
399109
250931
524669
477643
248493
269043
360819
98196
164979
24058
500840
139676
824604
331110
89360
103209
133578
330538
315378
132738
147100
841422
510153
175396
745880
138175
260309
889767
345722
545839
304273
295435
520587
128489
544243
89626
162920
777318
475331
537200
22093
539190
79
207035
739691
120808
23437
872124
326386
300905
624530
910374
344624
158678
459816
254120
454161
409800
174860
479413
297474
682472
364115
877254
375470
702998
292692
30452
418198
556054
247689
297002
554089
421111
518484
455757
12288
